1906.12 0
0 65 66 11 38 10 24 0 
0 64 42 43 41 56 23 28 22 1 63 73 0 
0 45 27 13 54 15 30 68 2 74 21 0 
0 61 36 69 47 48 5 29 71 60 70 20 37 0 
0 3 40 12 17 51 16 33 6 62 0 
0 72 9 39 58 49 55 25 18 50 32 44 0 
0 19 14 59 53 35 8 7 31 0 
0 75 57 46 52 34 26 67 4 0